1 2 3
1 3 7
2 5 8
4 9 12
6 10 19
11 13 28
15 14 32
17 16 34
18 21 38
20 22 39
25 23 42
26 24 43
27 30 45
29 31 50
36 33 51
37 35 52
41 40 53
48 44 59
57 46 60
61 47 62
63 49 64
67 54 69
68 55 73
71 56 75
72 58 76
74 65 78
79 66 83
80 70 84
81 77 85
82 86 87
